single_objective/SL-DABL/OP/problems/op/OPLib-master/instances/gen3/rat99-gen3-50.oplib
NAME : rat99
COMMENT : Rattled grid (Pulleyblank)
TYPE : OP
DIMENSION : 99
TSPSOL : 1211
COST_LIMIT : 606
EDGE_WEIGHT_TYPE : EUC_2D
NODE_COORD_SECTION
1 6 4
2 15 15
3 24 18
4 33 12
5 48 12
6 57 14
7 67 10
8 77 10
9 86 15
10 6 21
11 17 26
12 23 25
13 32 35
14 43 23
15 55 35
16 65 36
17 78 39
18 87 35
19 3 53
20 12 44
21 28 53
22 33 49
23 47 46
24 55 52
25 64 50
26 71 57
27 87 57
28 4 72
29 15 78
30 22 70
31 34 71
32 42 79
33 54 77
34 66 79
35 78 67
36 87 73
37 7 81
38 17 95
39 26 98
40 32 97
41 43 88
42 57 89
43 64 85
44 78 83
45 83 98
46 5 109
47 13 111
48 25 102
49 38 119
50 46 107
51 58 110
52 67 110
53 74 113
54 88 110
55 2 124
56 17 134
57 23 129
58 36 131
59 42 137
60 53 123
61 63 135
62 72 134
63 87 129
64 2 146
65 16 147
66 25 153
67 38 155
68 42 158
69 57 154
70 66 151
71 73 151
72 86 149
73 5 177
74 13 162
75 25 169
76 35 177
77 46 172
78 54 166
79 65 174
80 73 161
81 86 162
82 2 195
83 14 196
84 28 189
85 38 187
86 46 195
87 57 194
88 63 188
89 77 193
90 85 194
91 8 211
92 12 217
93 22 210
94 34 216
95 47 203
96 58 213
97 66 206
98 78 210
99 85 204
NODE_SCORE_SECTION
1 0
2 7
3 11
4 13
5 20
6 24
7 28
8 33
9 37
10 8
11 12
12 13
13 19
14 20
15 27
16 31
17 37
18 40
19 23
20 19
21 25
22 24
23 27
24 32
25 34
26 39
27 45
28 31
29 35
30 31
31 34
32 38
33 40
34 44
35 44
36 49
37 35
38 42
39 44
40 45
41 42
42 45
43 46
44 49
45 56
46 48
47 49
48 46
49 55
50 50
51 54
52 56
53 59
54 61
55 55
56 60
57 58
58 60
59 63
60 59
61 65
62 67
63 68
64 65
65 65
66 69
67 70
68 72
69 72
70 73
71 74
72 76
73 79
74 72
75 76
76 80
77 79
78 77
79 82
80 78
81 81
82 87
83 88
84 85
85 85
86 89
87 90
88 88
89 92
90 94
91 95
92 97
93 95
94 98
95 93
96 98
97 96
98 100
99 98
DEPOT_SECTION
1
-1
EOF
