single_objective/SL-DABL/OP/problems/op/OPLib-master/solutions/ea4op/gen3/rat99-gen3-50.sol
NAME : rat99
TYPE : OP
DIMENSION : 99
COST_LIMIT : 606
ROUTE_NODES : 47
ROUTE_SCORE : 2886
ROUTE_COST : 606
NODE_SEQUENCE_SECTION
1
2
11
12
13
22
21
31
32
41
50
60
61
70
71
80
79
88
89
90
99
98
97
87
86
95
94
93
92
91
83
84
85
76
77
68
67
59
58
49
48
39
38
37
28
19
10
-1
DEPOT_SECTION
1
-1
EOF
